(set-logic SAT)
(set-option :incremental true)
(declare-fun v1 () Bool)
(declare-fun v2 () Bool)
(declare-fun v3 () Bool)
(declare-fun v4 () Bool)
(declare-fun v5 () Bool)
(check-sat)
(assert (or v1 v2))
(push)
(check-sat)
(assert (or (or v3 (or (and (or v1 v4) true) false)) (and (or v5 v1) v1)))
(push)
(push)
(check-sat)
(pop)
(check-sat)
(check-sat)
(assert v3)
(push)
